NAME: rand_1/map3_180
TYPE: TSP
COMMENT: autogenerated using a wonderful map creator
DIMENSION: 210
EDGE_WEIGHT_TYPE: EUC_2D
NODE_COORD_SECTION
1 76.0 39.0
2 76.0 43.0
3 70.0 37.0
4 30.0 57.0
5 5.0 6.0
6 13.0 10.0
7 68.0 49.0
8 24.0 53.0
9 70.0 52.0
10 74.0 41.0
11 70.0 6.0
12 17.0 9.0
13 72.0 51.0
14 21.0 54.0
15 66.0 59.0
16 70.0 62.0
17 70.0 50.0
18 73.0 48.0
19 72.0 36.0
20 19.0 58.0
21 75.0 45.0
22 72.0 42.0
23 72.0 43.0
24 69.0 9.0
25 10.0 10.0
26 4.0 9.0
27 66.0 43.0
28 72.0 44.0
29 22.0 55.0
30 73.0 44.0
31 23.0 53.0
32 67.0 42.0
33 68.0 39.0
34 19.0 4.0
35 72.0 49.0
36 76.0 5.0
37 73.0 55.0
38 75.0 59.0
39 75.0 44.0
40 65.0 59.0
41 68.0 45.0
42 71.0 8.0
43 77.0 37.0
44 12.0 10.0
45 71.0 50.0
46 74.0 9.0
47 21.0 7.0
48 71.0 48.0
49 16.0 13.0
50 71.0 46.0
51 12.0 13.0
52 71.0 35.0
53 69.0 53.0
54 7.0 4.0
55 74.0 36.0
56 25.0 55.0
57 66.0 35.0
58 67.0 56.0
59 14.0 3.0
60 75.0 36.0
61 41.0 40.0
62 13.0 33.0
63 18.0 26.0
64 8.0 55.0
65 59.0 18.0
66 11.0 51.0
67 56.0 28.0
68 37.0 24.0
69 19.0 18.0
70 66.0 14.0
71 39.0 60.0
72 50.0 27.0
73 58.0 40.0
74 26.0 23.0
75 58.0 58.0
76 42.0 50.0
77 18.0 28.0
78 39.0 26.0
79 54.0 24.0
80 57.0 41.0
81 11.0 53.0
82 38.0 46.0
83 12.0 27.0
84 17.0 23.0
85 74.0 20.0
86 38.0 55.0
87 60.0 30.0
88 6.0 59.0
89 41.0 26.0
90 43.0 23.0
91 12.0 54.0
92 13.0 28.0
93 26.0 25.0
94 53.0 9.0
95 62.0 12.0
96 56.0 5.0
97 53.0 18.0
98 10.0 47.0
99 29.0 27.0
100 57.0 43.0
101 31.0 24.0
102 40.0 36.0
103 39.0 46.0
104 40.0 45.0
105 57.0 6.0
106 12.0 38.0
107 8.0 25.0
108 37.0 58.0
109 10.0 49.0
110 57.0 54.0
111 48.0 51.0
112 13.0 51.0
113 27.0 22.0
114 4.0 54.0
115 71.0 19.0
116 62.0 16.0
117 35.0 32.0
118 63.0 15.0
119 57.0 29.0
120 54.0 12.0
121 63.0 24.0
122 39.0 41.0
123 38.0 43.0
124 43.0 57.0
125 57.0 56.0
126 67.0 24.0
127 58.0 30.0
128 55.0 40.0
129 53.0 52.0
130 10.0 26.0
131 11.0 25.0
132 63.0 8.0
133 57.0 22.0
134 57.0 31.0
135 20.0 21.0
136 54.0 23.0
137 60.0 11.0
138 12.0 26.0
139 4.0 22.0
140 38.0 54.0
141 53.0 45.0
142 61.0 28.0
143 28.0 25.0
144 56.0 41.0
145 33.0 21.0
146 11.0 27.0
147 37.0 46.0
148 45.0 59.0
149 37.0 55.0
150 38.0 20.0
151 5.0 50.0
152 41.0 46.0
153 40.0 35.0
154 13.0 48.0
155 38.0 47.0
156 3.0 25.0
157 70.0 24.0
158 30.0 24.0
159 57.0 8.0
160 10.0 21.0
161 8.0 24.0
162 54.0 55.0
163 56.0 52.0
164 57.0 17.0
165 66.0 20.0
166 68.0 26.0
167 37.0 57.0
168 60.0 52.0
169 18.0 25.0
170 64.0 22.0
171 12.0 30.0
172 55.0 28.0
173 10.0 23.0
174 53.0 58.0
175 62.0 6.0
176 56.0 54.0
177 43.0 29.0
178 68.0 28.0
179 12.0 60.0
180 41.0 41.0
181 57.0 37.0
182 50.0 53.0
183 61.0 53.0
184 9.0 61.0
185 21.0 26.0
186 53.0 24.0
187 17.0 22.0
188 65.0 16.0
189 42.0 30.0
190 19.0 28.0
191 66.0 15.0
192 57.0 12.0
193 32.0 22.0
194 54.0 4.0
195 35.0 27.0
196 6.0 21.0
197 72.0 21.0
198 13.0 45.0
199 53.0 26.0
200 64.0 26.0
201 4.0 21.0
202 42.0 60.0
203 7.0 56.0
204 19.0 21.0
205 39.0 54.0
206 58.0 38.0
207 2.0 23.0
208 63.0 9.0
209 68.0 23.0
210 12.0 55.0
211 11.0 35.0
212 37.0 54.0
213 66.0 26.0
214 10.0 48.0
215 69.0 15.0
216 10.0 57.0
217 70.0 23.0
218 56.0 42.0
219 38.0 58.0
220 6.0 53.0
221 41.0 29.0
222 35.0 22.0
223 55.0 55.0
224 72.0 16.0
225 38.0 30.0
226 73.0 15.0
227 6.0 25.0
228 10.0 41.0
229 8.0 53.0
230 54.0 20.0
231 55.0 18.0
232 39.0 31.0
233 31.0 27.0
234 54.0 38.0
235 56.0 35.0
236 60.0 17.0
237 14.0 29.0
238 19.0 25.0
239 58.0 29.0
240 57.0 18.0
START_DEPOT_SECTION
1
2
3
4
5
6
7
8
9
10
11
12
13
14
15
16
17
18
19
20
21
22
23
24
25
26
27
28
29
30
-1
END_DEPOT_SECTION
31
32
33
34
35
36
37
38
39
40
41
42
43
44
45
46
47
48
49
50
51
52
53
54
55
56
57
58
59
60
-1
EOF
